
Welcome to IBM(R) ILOG(R) CPLEX(R) Interactive Optimizer 22.1.1.0
  with Simplex, Mixed Integer & Barrier Optimizers
5725-A06 5725-A29 5724-Y48 5724-Y49 5724-Y54 5724-Y55 5655-Y21
Copyright IBM Corp. 1988, 2022.  All Rights Reserved.

Type 'help' for a list of available commands.
Type 'help' followed by a command name for more
information on commands.

CPLEX> Selected objective sense:  MINIMIZE
Selected objective  name:  00000000
Selected RHS        name:  RHS1
Selected bound      name:  BOUND
Problem 'ee.mps' read.
Read time = 0.03 sec. (3.17 ticks)
CPLEX> New value for time limit in seconds: 7200
CPLEX> New value for parallel optimization mode: -1
CPLEX> New value for default parallel thread count: 40
CPLEX> New value for mixed integer optimality gap tolerance: 1e-13
CPLEX> Version identifier: 22.1.1.0 | 2022-11-28 | 9160aff4d
CPXPARAM_Threads                                 40
CPXPARAM_Parallel                                -1
CPXPARAM_TimeLimit                               7200
CPXPARAM_MIP_Tolerances_MIPGap                   1e-13
Found incumbent of value 0.000000 after 0.00 sec. (0.31 ticks)
Tried aggregator 2 times.
MIP Presolve eliminated 274 rows and 3331 columns.
MIP Presolve modified 6105 coefficients.
Aggregator did 873 substitutions.
Reduced MIP has 3382 rows, 7061 columns, and 26173 nonzeros.
Reduced MIP has 7061 binaries, 0 generals, 0 SOSs, and 0 indicators.
Presolve time = 0.07 sec. (70.40 ticks)
Probing fixed 24 vars, tightened 0 bounds.
Probing time = 0.06 sec. (28.74 ticks)
Tried aggregator 2 times.
Detecting symmetries...
MIP Presolve eliminated 28 rows and 46 columns.
Aggregator did 2 substitutions.
Reduced MIP has 3352 rows, 7007 columns, and 25999 nonzeros.
Reduced MIP has 7007 binaries, 0 generals, 0 SOSs, and 0 indicators.
Presolve time = 0.04 sec. (46.95 ticks)
Probing time = 0.02 sec. (5.07 ticks)
Clique table members: 16815.
MIP emphasis: balance optimality and feasibility.
MIP search method: dynamic search.
Parallel mode: opportunistic, using up to 40 threads.
Root relaxation solution time = 0.07 sec. (50.67 ticks)

        Nodes                                         Cuts/
   Node  Left     Objective  IInf  Best Integer    Best Bound    ItCnt     Gap

*     0+    0                            0.0000  -1.54000e+13              --- 
*     0+    0                      -5.78000e+12  -1.54000e+13           166.44%
*     0+    0                      -6.00000e+12  -1.54000e+13           156.67%
*     0+    0                      -6.99000e+12  -1.54000e+13           120.31%
*     0+    0                      -7.20000e+12  -1.54000e+13           113.89%
      0     0  -1.53900e+13    20  -7.20000e+12  -1.53900e+13     1614  113.75%
*     0+    0                      -1.53900e+13  -1.53900e+13             0.00%
      0     0  -1.53900e+13    87  -1.53900e+13      Cuts: 33     2020    0.00%
      0     0  -1.53900e+13   140  -1.53900e+13      Cuts: 45     2257    0.00%
*     0+    0                      -1.53900e+13  -1.53900e+13             0.00%
*     0+    0                      -1.53900e+13  -1.53900e+13             0.00%
*     0+    0                      -1.53900e+13  -1.53900e+13             0.00%
*     0+    0                      -1.53900e+13  -1.53900e+13             0.00%
*     0+    0                      -1.53900e+13  -1.53900e+13             0.00%

Repeating presolve.
Tried aggregator 2 times.
MIP Presolve eliminated 1416 rows and 3250 columns.
MIP Presolve modified 79 coefficients.
Aggregator did 353 substitutions.
Reduced MIP has 1583 rows, 3379 columns, and 11971 nonzeros.
Reduced MIP has 3379 binaries, 0 generals, 0 SOSs, and 0 indicators.
Presolve time = 0.04 sec. (40.83 ticks)
Probing time = 0.04 sec. (11.92 ticks)
Tried aggregator 1 time.
MIP Presolve eliminated 64 rows and 50 columns.
Reduced MIP has 1519 rows, 3319 columns, and 11803 nonzeros.
Reduced MIP has 3319 binaries, 0 generals, 0 SOSs, and 0 indicators.
Presolve time = 0.01 sec. (10.49 ticks)
Probing time = 0.03 sec. (8.39 ticks)
Tried aggregator 1 time.
Detecting symmetries...
MIP Presolve eliminated 3 rows and 3 columns.
Reduced MIP has 1516 rows, 3316 columns, and 11794 nonzeros.
Reduced MIP has 3316 binaries, 0 generals, 0 SOSs, and 0 indicators.
Presolve time = 0.02 sec. (13.19 ticks)
Represolve time = 0.16 sec. (106.10 ticks)
Probing time = 0.02 sec. (3.61 ticks)
Clique table members: 7838.
MIP emphasis: balance optimality and feasibility.
MIP search method: dynamic search.
Parallel mode: opportunistic, using up to 40 threads.
Root relaxation solution time = 0.05 sec. (33.07 ticks)

        Nodes                                         Cuts/
   Node  Left     Objective  IInf  Best Integer    Best Bound    ItCnt     Gap

*     0+    0                      -1.53900e+13  -1.53900e+13             0.00%
      0     0  -1.53900e+13    88  -1.53900e+13  -1.53900e+13     3230    0.00%
      0     0  -1.53900e+13   126  -1.53900e+13      Cuts: 69     3566    0.00%
      0     0  -1.53900e+13    93  -1.53900e+13      Cuts: 92     3778    0.00%
      0     0  -1.53900e+13   121  -1.53900e+13      Cuts: 34     3809    0.00%
      0     2  -1.53900e+13    80  -1.53900e+13  -1.53900e+13     3809    0.00%
Elapsed time = 1.68 sec. (1063.97 ticks, tree = 0.02 MB, solutions = 12)
   1528   109        cutoff        -1.53900e+13  -1.53900e+13    46676    0.00%
   3036   492    infeasible        -1.53900e+13  -1.53900e+13   143854    0.00%
   4939   515        cutoff        -1.53900e+13  -1.53900e+13   140358    0.00%
   7160   689  -1.53900e+13    76  -1.53900e+13  -1.53900e+13   172769    0.00%
   8853  1224  -1.53900e+13   124  -1.53900e+13  -1.53900e+13   252700    0.00%
   9905  1409  -1.53900e+13   109  -1.53900e+13  -1.53900e+13   280980    0.00%
  10451  2486  -1.53900e+13    94  -1.53900e+13  -1.53900e+13   414475    0.00%
  10854  2820  -1.53900e+13    60  -1.53900e+13  -1.53900e+13   461165    0.00%
  11055  2973        cutoff        -1.53900e+13  -1.53900e+13   485187    0.00%

Performing restart 1

Repeating presolve.
Tried aggregator 2 times.
MIP Presolve eliminated 0 rows and 65 columns.
MIP Presolve modified 900 coefficients.
Aggregator did 1 substitutions.
Reduced MIP has 1515 rows, 3250 columns, and 11597 nonzeros.
Reduced MIP has 3250 binaries, 0 generals, 0 SOSs, and 0 indicators.
Presolve time = 0.02 sec. (12.52 ticks)
Tried aggregator 1 time.
Reduced MIP has 1515 rows, 3250 columns, and 11597 nonzeros.
Reduced MIP has 3250 binaries, 0 generals, 0 SOSs, and 0 indicators.
Presolve time = 0.02 sec. (9.36 ticks)
Represolve time = 0.10 sec. (48.67 ticks)
  11056     0  -1.53900e+13   170  -1.53900e+13      Cuts: 26   606838    0.00%
  11056     0  -1.53900e+13   201  -1.53900e+13      Cuts: 36   606982    0.00%
  11056     0  -1.53900e+13   219  -1.53900e+13      Cuts: 46   607134    0.00%
  11056     0  -1.53900e+13   219  -1.53900e+13      Cuts: 35   607262    0.00%
  11056     0  -1.53900e+13   271  -1.53900e+13      Cuts: 21   607407    0.00%
  11056     0  -1.53900e+13   269  -1.53900e+13      Cuts: 28   607514    0.00%
  11056     0  -1.53900e+13   311  -1.53900e+13      Cuts: 22   607572    0.00%
  11056     0  -1.53900e+13   293  -1.53900e+13      Cuts: 21   607626    0.00%
  11056     0  -1.53900e+13   331  -1.53900e+13      Cuts: 19   607701    0.00%
  11056     0  -1.53900e+13   286  -1.53900e+13      Cuts: 41   607813    0.00%
  11056     0  -1.53900e+13   295  -1.53900e+13      Cuts: 27   607871    0.00%
  11056     0  -1.53900e+13   324  -1.53900e+13      Cuts: 22   607929    0.00%
  11056     0  -1.53900e+13   331  -1.53900e+13      Cuts: 30   608033    0.00%
  11056     0  -1.53900e+13   317  -1.53900e+13      Cuts: 18   608104    0.00%
  11056     0  -1.53900e+13   351  -1.53900e+13      Cuts: 18   608174    0.00%
  11056     7        cutoff        -1.53900e+13  -1.53900e+13   610560    0.00%
Elapsed time = 7.61 sec. (4842.28 ticks, tree = 0.02 MB, solutions = 13)

GUB cover cuts applied:  1
Clique cuts applied:  18
Cover cuts applied:  192
Flow cuts applied:  7
Mixed integer rounding cuts applied:  18
Zero-half cuts applied:  71
Lift and project cuts applied:  6
Gomory fractional cuts applied:  9

Root node processing (before b&c):
  Real time             =    1.25 sec. (1063.82 ticks)
Parallel b&c, 40 threads:
  Real time             =    7.06 sec. (4726.73 ticks)
  Sync time (average)   =    2.08 sec.
  Wait time (average)   =    0.08 sec.
                          ------------
Total (root+branch&cut) =    8.31 sec. (5790.55 ticks)

Solution pool: 13 solutions saved.

MIP - Integer optimal solution:  Objective = -1.5389999988e+13
Solution time =    8.38 sec.  Iterations = 623984  Nodes = 11645
Deterministic time = 5790.58 ticks  (691.38 ticks/sec)

CPLEX> Solution 'p14' written to file 'ee.sol'.
CPLEX> 